# Solution for model HTSPS_Model
# Objective value = 2.3087548268097328e+02
epsilon[-1,0,0,0] 1
epsilon[-1,0,0,1] 1
epsilon[-1,0,1,0] 0
epsilon[-1,0,1,1] 0
epsilon[-1,0,2,0] 0
epsilon[-1,0,2,1] 0
epsilon[-1,0,3,0] 1
epsilon[-1,0,3,1] 1
epsilon[-1,0,4,0] 1
epsilon[-1,0,4,1] 1
epsilon[-2,0,1,0] 1
epsilon[-2,0,1,1] 1
epsilon[-2,0,2,0] 1
epsilon[-2,0,2,1] 1
epsilon[-3,0,0,0] 1
epsilon[-3,0,0,1] 0
epsilon[-3,0,1,0] 1
epsilon[-3,0,1,1] 1
epsilon[-3,0,3,0] 0
epsilon[-3,0,3,1] 0
epsilon[-3,0,4,0] 0
epsilon[-3,0,4,1] 0
epsilon[-4,0,0,0] 0
epsilon[-4,0,0,1] 0
epsilon[-4,0,1,0] 0
epsilon[-4,0,1,1] 1
epsilon[-4,0,2,0] 1
epsilon[-4,0,2,1] 1
epsilon[-4,0,3,0] 1
epsilon[-4,0,3,1] 1
p[-1,0,0,0] 0
p[0,0,-1,0] 0
p[-1,0,0,1] 18.2842712474619
p[0,1,-1,0] 1.8284271247461902e+01
p[-1,0,1,0] 0
p[1,0,-1,0] 0
p[-1,0,1,1] 0
p[1,1,-1,0] 0
p[-1,0,2,0] 0
p[2,0,-1,0] 0
p[-1,0,2,1] 0
p[2,1,-1,0] 0
p[-1,0,3,0] 0
p[3,0,-1,0] 0
p[-1,0,3,1] 0
p[3,1,-1,0] 0
p[-1,0,4,0] 0
p[4,0,-1,0] 0
p[-1,0,4,1] 0
p[4,1,-1,0] 0
p[-2,0,1,0] 0
p[1,0,-2,0] 1.8184214242446597e+01
p[-2,0,1,1] 0
p[1,1,-2,0] 0
p[-2,0,2,0] 2.8156000202255189e+01
p[2,0,-2,0] 0
p[-2,0,2,1] 0
p[2,1,-2,0] 0
p[-3,0,0,0] 0
p[0,0,-3,0] 0
p[-3,0,0,1] 0
p[0,1,-3,0] 0
p[-3,0,1,0] 3.1791538820427565e+01
p[1,0,-3,0] 0
p[-3,0,1,1] 0
p[1,1,-3,0] 9.8378073538301916e+00
p[-3,0,3,0] 0
p[3,0,-3,0] 0
p[-3,0,3,1] 0
p[3,1,-3,0] 0
p[-3,0,4,0] 0
p[4,0,-3,0] 0
p[-3,0,4,1] 0
p[4,1,-3,0] 0
p[-4,0,0,0] 0
p[0,0,-4,0] 0
p[-4,0,0,1] 0
p[0,1,-4,0] 0
p[-4,0,1,0] 0
p[1,0,-4,0] 0
p[-4,0,1,1] 0
p[1,1,-4,0] 0
p[-4,0,2,0] 0
p[2,0,-4,0] 1.6497628823513818e+01
p[-4,0,2,1] 0
p[2,1,-4,0] 0
p[-4,0,3,0] 2.1555479496114206e+01
p[3,0,-4,0] 0
p[-4,0,3,1] 0
p[3,1,-4,0] 0
y[-1,0,0,0] 0
y[0,0,-1,0] 0
y[-1,0,0,1] 1
y[0,1,-1,0] 1
y[-1,0,1,0] 0
y[1,0,-1,0] 0
y[-1,0,1,1] 0
y[1,1,-1,0] 0
y[-1,0,2,0] 0
y[2,0,-1,0] 0
y[-1,0,2,1] 0
y[2,1,-1,0] 0
y[-1,0,3,0] 0
y[3,0,-1,0] 0
y[-1,0,3,1] 0
y[3,1,-1,0] 0
y[-1,0,4,0] 0
y[4,0,-1,0] 0
y[-1,0,4,1] 0
y[4,1,-1,0] 0
y[-2,0,1,0] 0
y[1,0,-2,0] 1
y[-2,0,1,1] 0
y[1,1,-2,0] 0
y[-2,0,2,0] 1
y[2,0,-2,0] 0
y[-2,0,2,1] 0
y[2,1,-2,0] 0
y[-3,0,0,0] 0
y[0,0,-3,0] 0
y[-3,0,0,1] 0
y[0,1,-3,0] 0
y[-3,0,1,0] 1
y[1,0,-3,0] 0
y[-3,0,1,1] 0
y[1,1,-3,0] 1
y[-3,0,3,0] 0
y[3,0,-3,0] 0
y[-3,0,3,1] 0
y[3,1,-3,0] 0
y[-3,0,4,0] 0
y[4,0,-3,0] 0
y[-3,0,4,1] 0
y[4,1,-3,0] 0
y[-4,0,0,0] 0
y[0,0,-4,0] 0
y[-4,0,0,1] 0
y[0,1,-4,0] 0
y[-4,0,1,0] 0
y[1,0,-4,0] 0
y[-4,0,1,1] 0
y[1,1,-4,0] 0
y[-4,0,2,0] 0
y[2,0,-4,0] 1
y[-4,0,2,1] 0
y[2,1,-4,0] 0
y[-4,0,3,0] 1
y[3,0,-4,0] 0
y[-4,0,3,1] 0
y[3,1,-4,0] 0
y[0,0,1,0] 0
y[0,0,1,1] 0
y[0,0,3,0] 0
y[0,0,3,1] 0
y[0,0,4,0] 0
y[0,0,4,1] 0
y[0,1,1,0] 0
y[0,1,1,1] 1
y[0,1,2,1] 0
y[0,1,3,0] 0
y[0,1,3,1] 0
y[0,1,4,0] 0
y[0,1,4,1] 0
y[1,0,0,0] 0
y[1,0,0,1] 0
y[1,0,2,0] 0
y[1,0,2,1] 0
y[1,1,0,0] 0
y[1,1,0,1] 0
y[1,1,2,0] 0
y[1,1,2,1] 0
y[1,1,3,0] 0
y[1,1,3,1] 0
y[2,0,1,0] 0
y[2,0,1,1] 0
y[2,0,3,0] 0
y[2,0,3,1] 0
y[2,1,0,1] 0
y[2,1,1,0] 0
y[2,1,1,1] 0
y[2,1,3,0] 0
y[2,1,3,1] 0
y[3,0,0,0] 0
y[3,0,0,1] 1
y[3,0,1,1] 0
y[3,0,2,0] 0
y[3,0,2,1] 0
y[3,1,0,0] 0
y[3,1,0,1] 0
y[3,1,1,1] 0
y[3,1,2,0] 0
y[3,1,2,1] 0
y[4,0,0,0] 0
y[4,0,0,1] 0
y[4,1,0,0] 0
y[4,1,0,1] 0
dist[-1,0,0,0] 10000
dist[0,0,-1,0] 10000
dist[-1,0,0,1] 18.2842712474619
dist[0,1,-1,0] 1.8284271247461902e+01
dist[-1,0,1,0] 8.8970847420918290e+01
dist[1,0,-1,0] 8.8970847420918290e+01
dist[-1,0,1,1] 5.4485127788246253e+01
dist[1,1,-1,0] 5.4485127788246253e+01
dist[-1,0,2,0] 8.0356910387555558e+01
dist[2,0,-1,0] 8.0356910387555558e+01
dist[-1,0,2,1] 6.2336076533793047e+01
dist[2,1,-1,0] 6.2336076533793047e+01
dist[-1,0,3,0] 46.5685424949238
dist[3,0,-1,0] 46.5685424949238
dist[-1,0,3,1] 6.3324959584186338e+01
dist[3,1,-1,0] 6.3324959584186338e+01
dist[-1,0,4,0] 5.5613786229796062e+01
dist[4,0,-1,0] 5.5613786229796062e+01
dist[-1,0,4,1] 3.3679586919241785e+01
dist[4,1,-1,0] 3.3679586919241785e+01
dist[-2,0,1,0] 1.8184214242446597e+01
dist[1,0,-2,0] 1.8184214242446597e+01
dist[-2,0,1,1] 4.9144583568898376e+01
dist[1,1,-2,0] 4.9144583568898376e+01
dist[-2,0,2,0] 2.8156000202255189e+01
dist[2,0,-2,0] 2.8156000202255189e+01
dist[-2,0,2,1] 3.1097570646952402e+01
dist[2,1,-2,0] 3.1097570646952402e+01
dist[-3,0,0,0] 2.2196515331596423e+01
dist[0,0,-3,0] 2.2196515331596423e+01
dist[-3,0,0,1] 10000
dist[0,1,-3,0] 4.9638781097362475e+01
dist[-3,0,1,0] 3.1791538820427565e+01
dist[1,0,-3,0] 10000
dist[-3,0,1,1] 9.8378073538301916e+00
dist[1,1,-3,0] 9.8378073538301916e+00
dist[-3,0,3,0] 3.4535287783458905e+01
dist[3,0,-3,0] 10000
dist[-3,0,3,1] 8.4429545282832123e+01
dist[3,1,-3,0] 8.4429545282832123e+01
dist[-3,0,4,0] 3.3590870394602788e+01
dist[4,0,-3,0] 3.3590870394602788e+01
dist[-3,0,4,1] 3.6987901643216411e+01
dist[4,1,-3,0] 3.6987901643216411e+01
dist[-4,0,0,0] 6.8278788953857884e+01
dist[0,0,-4,0] 10000
dist[-4,0,0,1] 4.6308579591891309e+01
dist[0,1,-4,0] 4.6308579591891309e+01
dist[-4,0,1,0] 4.6027677360489371e+01
dist[1,0,-4,0] 4.6027677360489371e+01
dist[-4,0,1,1] 4.5922360578948620e+01
dist[1,1,-4,0] 4.5922360578948620e+01
dist[-4,0,2,0] 1.6497628823513818e+01
dist[2,0,-4,0] 1.6497628823513818e+01
dist[-4,0,2,1] 2.9100308505858578e+01
dist[2,1,-4,0] 2.9100308505858578e+01
dist[-4,0,3,0] 2.1555479496114206e+01
dist[3,0,-4,0] 2.1555479496114206e+01
dist[-4,0,3,1] 4.1318363861054372e+01
dist[3,1,-4,0] 4.1318363861054372e+01
dist[0,0,1,0] 5.2201532544552748e+01
dist[0,0,1,1] 2.2360679774997898e+01
dist[0,0,3,0] 50
dist[0,0,3,1] 9.8994949366116657e+01
dist[0,0,4,0] 1.4142135623730951e+01
dist[0,0,4,1] 30
dist[0,1,1,0] 7.1589105316381762e+01
dist[0,1,1,1] 40
dist[0,1,2,1] 4.4721359549995796e+01
dist[0,1,3,0] 2.8284271247461902e+01
dist[0,1,3,1] 5.3851648071345039e+01
dist[0,1,4,0] 50
dist[0,1,4,1] 2.8284271247461902e+01
dist[1,0,0,0] 5.2201532544552748e+01
dist[1,0,0,1] 7.1589105316381762e+01
dist[1,0,2,0] 4.3011626335213137e+01
dist[1,0,2,1] 2.6925824035672520e+01
dist[1,1,0,0] 2.2360679774997898e+01
dist[1,1,0,1] 40
dist[1,1,2,0] 5.5901699437494742e+01
dist[1,1,2,1] 20
dist[1,1,3,0] 2.8284271247461902e+01
dist[1,1,3,1] 7.8102496759066540e+01
dist[2,0,1,0] 4.3011626335213137e+01
dist[2,0,1,1] 5.5901699437494742e+01
dist[2,0,3,0] 3.6400549446402593e+01
dist[2,0,3,1] 5.0249378105604450e+01
dist[2,1,0,1] 4.4721359549995796e+01
dist[2,1,1,0] 2.6925824035672520e+01
dist[2,1,1,1] 20
dist[2,1,3,0] 20
dist[2,1,3,1] 6.7082039324993687e+01
dist[3,0,0,0] 50
dist[3,0,0,1] 2.8284271247461902e+01
dist[3,0,1,1] 2.8284271247461902e+01
dist[3,0,2,0] 3.6400549446402593e+01
dist[3,0,2,1] 20
dist[3,1,0,0] 9.8994949366116657e+01
dist[3,1,0,1] 5.3851648071345039e+01
dist[3,1,1,1] 7.8102496759066540e+01
dist[3,1,2,0] 5.0249378105604450e+01
dist[3,1,2,1] 6.7082039324993687e+01
dist[4,0,0,0] 1.4142135623730951e+01
dist[4,0,0,1] 50
dist[4,1,0,0] 30
dist[4,1,0,1] 2.8284271247461902e+01
dif[-1,0,0,0,0] 7.0710678118654755e+00
dif[-1,0,0,0,1] 6.2928932188134524e+01
dif[0,0,-1,0,0] 7.0710678118654755e+00
dif[0,0,-1,0,1] 6.2928932188134524e+01
dif[-1,0,0,1,0] 1.2928932188134524e+01
dif[-1,0,0,1,1] 1.2928932188134524e+01
dif[0,1,-1,0,0] 1.2928932188134524e+01
dif[0,1,-1,0,1] 1.2928932188134524e+01
dif[-1,0,1,0,0] 4.2928932188134524e+01
dif[-1,0,1,0,1] 7.7928932188134524e+01
dif[1,0,-1,0,0] 4.2928932188134524e+01
dif[1,0,-1,0,1] 7.7928932188134524e+01
dif[-1,0,1,1,0] 1.2928932188134524e+01
dif[-1,0,1,1,1] 5.2928932188134524e+01
dif[1,1,-1,0,0] 1.2928932188134524e+01
dif[1,1,-1,0,1] 5.2928932188134524e+01
dif[-1,0,2,0,0] 6.7928932188134524e+01
dif[-1,0,2,0,1] 4.2928932188134524e+01
dif[2,0,-1,0,0] 6.7928932188134524e+01
dif[2,0,-1,0,1] 4.2928932188134524e+01
dif[-1,0,2,1,0] 3.2928932188134524e+01
dif[-1,0,2,1,1] 5.2928932188134524e+01
dif[2,1,-1,0,0] 3.2928932188134524e+01
dif[2,1,-1,0,1] 5.2928932188134524e+01
dif[-1,0,3,0,0] 3.2928932188134524e+01
dif[-1,0,3,0,1] 3.2928932188134524e+01
dif[3,0,-1,0,0] 3.2928932188134524e+01
dif[3,0,-1,0,1] 3.2928932188134524e+01
dif[-1,0,3,1,0] 6.2928932188134524e+01
dif[-1,0,3,1,1] 7.0710678118654755e+00
dif[3,1,-1,0,0] 6.2928932188134524e+01
dif[3,1,-1,0,1] 7.0710678118654755e+00
dif[-1,0,4,0,0] 1.7071067811865476e+01
dif[-1,0,4,0,1] 5.2928932188134524e+01
dif[4,0,-1,0,0] 1.7071067811865476e+01
dif[4,0,-1,0,1] 5.2928932188134524e+01
dif[-1,0,4,1,0] 7.0710678118654755e+00
dif[-1,0,4,1,1] 3.2928932188134524e+01
dif[4,1,-1,0,0] 7.0710678118654755e+00
dif[4,1,-1,0,1] 3.2928932188134524e+01
dif[-2,0,1,0,0] 1.6203279841177192e+01
dif[-2,0,1,0,1] 8.2534472606110825e+00
dif[1,0,-2,0,0] 1.6203279841177192e+01
dif[1,0,-2,0,1] 8.2534472606110825e+00
dif[-2,0,1,1,0] 4.6203279841177192e+01
dif[-2,0,1,1,1] 1.6746552739388918e+01
dif[1,1,-2,0,0] 4.6203279841177192e+01
dif[1,1,-2,0,1] 1.6746552739388918e+01
dif[-2,0,2,0,0] 8.7967201588228079e+00
dif[-2,0,2,0,1] 2.6746552739388918e+01
dif[2,0,-2,0,0] 8.7967201588228079e+00
dif[2,0,-2,0,1] 2.6746552739388918e+01
dif[-2,0,2,1,0] 2.6203279841177192e+01
dif[-2,0,2,1,1] 1.6746552739388918e+01
dif[2,1,-2,0,0] 2.6203279841177192e+01
dif[2,1,-2,0,1] 1.6746552739388918e+01
dif[-3,0,0,0,0] 2.2192735361958015e+01
dif[-3,0,0,0,1] 4.0967329521927809e-01
dif[0,0,-3,0,0] 2.2192735361958015e+01
dif[0,0,-3,0,1] 4.0967329521927809e-01
dif[-3,0,0,1,0] 2.1927353619580430e+00
dif[-3,0,0,1,1] 4.9590326704780779e+01
dif[0,1,-3,0,0] 2.1927353619580430e+00
dif[0,1,-3,0,1] 4.9590326704780779e+01
dif[-3,0,1,0,0] 2.7807264638041985e+01
dif[-3,0,1,0,1] 1.5409673295219221e+01
dif[1,0,-3,0,0] 2.7807264638041985e+01
dif[1,0,-3,0,1] 1.5409673295219221e+01
dif[-3,0,1,1,0] 2.1927353619580430e+00
dif[-3,0,1,1,1] 9.5903267047807788e+00
dif[1,1,-3,0,0] 2.1927353619580430e+00
dif[1,1,-3,0,1] 9.5903267047807788e+00
dif[-3,0,3,0,0] 1.7807264638041985e+01
dif[-3,0,3,0,1] 2.9590326704780779e+01
dif[3,0,-3,0,0] 1.7807264638041985e+01
dif[3,0,-3,0,1] 2.9590326704780779e+01
dif[-3,0,3,1,0] 4.7807264638041985e+01
dif[-3,0,3,1,1] 6.9590326704780779e+01
dif[3,1,-3,0,0] 4.7807264638041985e+01
dif[3,1,-3,0,1] 6.9590326704780779e+01
dif[-3,0,4,0,0] 3.2192735361958015e+01
dif[-3,0,4,0,1] 9.5903267047807788e+00
dif[4,0,-3,0,0] 3.2192735361958015e+01
dif[4,0,-3,0,1] 9.5903267047807788e+00
dif[-3,0,4,1,0] 2.2192735361958015e+01
dif[-3,0,4,1,1] 2.9590326704780779e+01
dif[4,1,-3,0,0] 2.2192735361958015e+01
dif[4,1,-3,0,1] 2.9590326704780779e+01
dif[-4,0,0,0,0] 6.1550880121385219e+01
dif[-4,0,0,0,1] 2.9554733449399968e+01
dif[0,0,-4,0,0] 6.1550880121385219e+01
dif[0,0,-4,0,1] 2.9554733449399968e+01
dif[-4,0,0,1,0] 4.1550880121385219e+01
dif[-4,0,0,1,1] 2.0445266550600032e+01
dif[0,1,-4,0,0] 4.1550880121385219e+01
dif[0,1,-4,0,1] 2.0445266550600032e+01
dif[-4,0,1,0,0] 1.1550880121385219e+01
dif[-4,0,1,0,1] 4.4554733449399968e+01
dif[1,0,-4,0,0] 1.1550880121385219e+01
dif[1,0,-4,0,1] 4.4554733449399968e+01
dif[-4,0,1,1,0] 4.1550880121385219e+01
dif[-4,0,1,1,1] 1.9554733449399968e+01
dif[1,1,-4,0,0] 4.1550880121385219e+01
dif[1,1,-4,0,1] 1.9554733449399968e+01
dif[-4,0,2,0,0] 1.3449119878614781e+01
dif[-4,0,2,0,1] 9.5547334493999685e+00
dif[2,0,-4,0,0] 1.3449119878614781e+01
dif[2,0,-4,0,1] 9.5547334493999685e+00
dif[-4,0,2,1,0] 2.1550880121385219e+01
dif[-4,0,2,1,1] 1.9554733449399968e+01
dif[2,1,-4,0,0] 2.1550880121385219e+01
dif[2,1,-4,0,1] 1.9554733449399968e+01
dif[-4,0,3,0,0] 2.1550880121385219e+01
dif[-4,0,3,0,1] 4.4526655060003151e-01
dif[3,0,-4,0,0] 2.1550880121385219e+01
dif[3,0,-4,0,1] 4.4526655060003151e-01
dif[-4,0,3,1,0] 8.44911987861478
dif[-4,0,3,1,1] 4.0445266550600032e+01
dif[3,1,-4,0,0] 8.44911987861478
dif[3,1,-4,0,1] 4.0445266550600032e+01
dif[0,0,1,0,0] 0
dif[0,0,1,0,1] 0
dif[0,0,1,1,0] 0
dif[0,0,1,1,1] 0
dif[0,0,3,0,0] 0
dif[0,0,3,0,1] 0
dif[0,0,3,1,0] 0
dif[0,0,3,1,1] 0
dif[0,0,4,0,0] 0
dif[0,0,4,0,1] 0
dif[0,0,4,1,0] 0
dif[0,0,4,1,1] 0
dif[0,1,1,0,0] 0
dif[0,1,1,0,1] 0
dif[0,1,1,1,0] 0
dif[0,1,1,1,1] 0
dif[0,1,2,1,0] 0
dif[0,1,2,1,1] 0
dif[0,1,3,0,0] 0
dif[0,1,3,0,1] 0
dif[0,1,3,1,0] 0
dif[0,1,3,1,1] 0
dif[0,1,4,0,0] 0
dif[0,1,4,0,1] 0
dif[0,1,4,1,0] 0
dif[0,1,4,1,1] 0
dif[1,0,0,0,0] 0
dif[1,0,0,0,1] 0
dif[1,0,0,1,0] 0
dif[1,0,0,1,1] 0
dif[1,0,2,0,0] 0
dif[1,0,2,0,1] 0
dif[1,0,2,1,0] 0
dif[1,0,2,1,1] 0
dif[1,1,0,0,0] 0
dif[1,1,0,0,1] 0
dif[1,1,0,1,0] 0
dif[1,1,0,1,1] 0
dif[1,1,2,0,0] 0
dif[1,1,2,0,1] 0
dif[1,1,2,1,0] 0
dif[1,1,2,1,1] 0
dif[1,1,3,0,0] 0
dif[1,1,3,0,1] 0
dif[1,1,3,1,0] 0
dif[1,1,3,1,1] 0
dif[2,0,1,0,0] 0
dif[2,0,1,0,1] 0
dif[2,0,1,1,0] 0
dif[2,0,1,1,1] 0
dif[2,0,3,0,0] 0
dif[2,0,3,0,1] 0
dif[2,0,3,1,0] 0
dif[2,0,3,1,1] 0
dif[2,1,0,1,0] 0
dif[2,1,0,1,1] 0
dif[2,1,1,0,0] 0
dif[2,1,1,0,1] 0
dif[2,1,1,1,0] 0
dif[2,1,1,1,1] 0
dif[2,1,3,0,0] 0
dif[2,1,3,0,1] 0
dif[2,1,3,1,0] 0
dif[2,1,3,1,1] 0
dif[3,0,0,0,0] 0
dif[3,0,0,0,1] 0
dif[3,0,0,1,0] 0
dif[3,0,0,1,1] 0
dif[3,0,1,1,0] 0
dif[3,0,1,1,1] 0
dif[3,0,2,0,0] 0
dif[3,0,2,0,1] 0
dif[3,0,2,1,0] 0
dif[3,0,2,1,1] 0
dif[3,1,0,0,0] 0
dif[3,1,0,0,1] 0
dif[3,1,0,1,0] 0
dif[3,1,0,1,1] 0
dif[3,1,1,1,0] 0
dif[3,1,1,1,1] 0
dif[3,1,2,0,0] 0
dif[3,1,2,0,1] 0
dif[3,1,2,1,0] 0
dif[3,1,2,1,1] 0
dif[4,0,0,0,0] 0
dif[4,0,0,0,1] 0
dif[4,0,0,1,0] 0
dif[4,0,0,1,1] 0
dif[4,1,0,0,0] 0
dif[4,1,0,0,1] 0
dif[4,1,0,1,0] 0
dif[4,1,0,1,1] 0
delta[-1,0,0,0,0] 1
delta[-1,0,0,0,1] 1
delta[-1,0,0,0,2] 1
delta[-1,0,0,0,3] 1
delta[-1,0,0,0,4] 1
delta[-1,0,0,1,0] 1
delta[-1,0,0,1,1] 1
delta[-1,0,0,1,2] 1
delta[-1,0,0,1,3] 1
delta[-1,0,0,1,4] 1
delta[-1,0,1,0,0] 0
delta[-1,0,1,0,1] 1
delta[-1,0,1,0,2] 1
delta[-1,0,1,0,3] 1
delta[-1,0,1,0,4] 1
delta[-1,0,1,1,0] 0
delta[-1,0,1,1,1] 1
delta[-1,0,1,1,2] 1
delta[-1,0,1,1,3] 1
delta[-1,0,1,1,4] 1
delta[-1,0,2,0,0] 1
delta[-1,0,2,0,1] 1
delta[-1,0,2,0,2] 1
delta[-1,0,2,0,3] 0
delta[-1,0,2,0,4] 1
delta[-1,0,2,1,0] 0
delta[-1,0,2,1,1] 1
delta[-1,0,2,1,2] 0
delta[-1,0,2,1,3] 1
delta[-1,0,2,1,4] 1
delta[-1,0,3,0,0] 1
delta[-1,0,3,0,1] 1
delta[-1,0,3,0,2] 1
delta[-1,0,3,0,3] 1
delta[-1,0,3,0,4] 1
delta[-1,0,3,1,0] 1
delta[-1,0,3,1,1] 1
delta[-1,0,3,1,2] 1
delta[-1,0,3,1,3] 1
delta[-1,0,3,1,4] 1
delta[-1,0,4,0,0] 1
delta[-1,0,4,0,1] 1
delta[-1,0,4,0,2] 1
delta[-1,0,4,0,3] 1
delta[-1,0,4,0,4] 1
delta[-1,0,4,1,0] 1
delta[-1,0,4,1,1] 1
delta[-1,0,4,1,2] 1
delta[-1,0,4,1,3] 1
delta[-1,0,4,1,4] 1
delta[-2,0,1,0,0] 1
delta[-2,0,1,0,1] 1
delta[-2,0,1,0,2] 1
delta[-2,0,1,0,3] 1
delta[-2,0,1,0,4] 1
delta[-2,0,1,1,0] 1
delta[-2,0,1,1,1] 1
delta[-2,0,1,1,2] 1
delta[-2,0,1,1,3] 1
delta[-2,0,1,1,4] 1
delta[-2,0,2,0,0] 1
delta[-2,0,2,0,1] 1
delta[-2,0,2,0,2] 1
delta[-2,0,2,0,3] 1
delta[-2,0,2,0,4] 1
delta[-2,0,2,1,0] 1
delta[-2,0,2,1,1] 1
delta[-2,0,2,1,2] 1
delta[-2,0,2,1,3] 1
delta[-2,0,2,1,4] 1
delta[-3,0,0,0,0] 1
delta[-3,0,0,0,1] 1
delta[-3,0,0,0,2] 1
delta[-3,0,0,0,3] 1
delta[-3,0,0,0,4] 1
delta[-3,0,0,1,0] 1
delta[-3,0,0,1,1] 0
delta[-3,0,0,1,2] 1
delta[-3,0,0,1,3] 1
delta[-3,0,0,1,4] 1
delta[-3,0,1,0,0] 1
delta[-3,0,1,0,1] 1
delta[-3,0,1,0,2] 1
delta[-3,0,1,0,3] 1
delta[-3,0,1,0,4] 1
delta[-3,0,1,1,0] 1
delta[-3,0,1,1,1] 1
delta[-3,0,1,1,2] 1
delta[-3,0,1,1,3] 1
delta[-3,0,1,1,4] 1
delta[-3,0,3,0,0] 1
delta[-3,0,3,0,1] 0
delta[-3,0,3,0,2] 1
delta[-3,0,3,0,3] 1
delta[-3,0,3,0,4] 1
delta[-3,0,3,1,0] 1
delta[-3,0,3,1,1] 0
delta[-3,0,3,1,2] 1
delta[-3,0,3,1,3] 1
delta[-3,0,3,1,4] 1
delta[-3,0,4,0,0] 0
delta[-3,0,4,0,1] 1
delta[-3,0,4,0,2] 1
delta[-3,0,4,0,3] 1
delta[-3,0,4,0,4] 1
delta[-3,0,4,1,0] 0
delta[-3,0,4,1,1] 1
delta[-3,0,4,1,2] 1
delta[-3,0,4,1,3] 1
delta[-3,0,4,1,4] 1
delta[-4,0,0,0,0] 0
delta[-4,0,0,0,1] 0
delta[-4,0,0,0,2] 1
delta[-4,0,0,0,3] 1
delta[-4,0,0,0,4] 1
delta[-4,0,0,1,0] 1
delta[-4,0,0,1,1] 1
delta[-4,0,0,1,2] 1
delta[-4,0,0,1,3] 0
delta[-4,0,0,1,4] 1
delta[-4,0,1,0,0] 1
delta[-4,0,1,0,1] 1
delta[-4,0,1,0,2] 0
delta[-4,0,1,0,3] 1
delta[-4,0,1,0,4] 1
delta[-4,0,1,1,0] 1
delta[-4,0,1,1,1] 1
delta[-4,0,1,1,2] 1
delta[-4,0,1,1,3] 1
delta[-4,0,1,1,4] 1
delta[-4,0,2,0,0] 1
delta[-4,0,2,0,1] 1
delta[-4,0,2,0,2] 1
delta[-4,0,2,0,3] 1
delta[-4,0,2,0,4] 1
delta[-4,0,2,1,0] 1
delta[-4,0,2,1,1] 1
delta[-4,0,2,1,2] 1
delta[-4,0,2,1,3] 1
delta[-4,0,2,1,4] 1
delta[-4,0,3,0,0] 1
delta[-4,0,3,0,1] 1
delta[-4,0,3,0,2] 1
delta[-4,0,3,0,3] 1
delta[-4,0,3,0,4] 1
delta[-4,0,3,1,0] 1
delta[-4,0,3,1,1] 1
delta[-4,0,3,1,2] 1
delta[-4,0,3,1,3] 1
delta[-4,0,3,1,4] 1
gamma[-1,0,0,0,0,0] 0
gamma[-1,0,0,0,0,1] 0
gamma[-1,0,0,0,1,0] 0
gamma[-1,0,0,0,1,1] 0
gamma[-1,0,0,0,2,0] 1
gamma[-1,0,0,0,2,1] 0
gamma[-1,0,0,0,3,0] 0
gamma[-1,0,0,0,3,1] 0
gamma[-1,0,0,0,4,0] 0
gamma[-1,0,0,0,4,1] 1
gamma[-1,0,0,1,0,0] 0
gamma[-1,0,0,1,0,1] 1
gamma[-1,0,0,1,1,0] 1
gamma[-1,0,0,1,1,1] 1
gamma[-1,0,0,1,2,0] 1
gamma[-1,0,0,1,2,1] 0
gamma[-1,0,0,1,3,0] 0
gamma[-1,0,0,1,3,1] 0
gamma[-1,0,0,1,4,0] 0
gamma[-1,0,0,1,4,1] 1
gamma[-1,0,1,0,0,0] 0
gamma[-1,0,1,0,0,1] 0
gamma[-1,0,1,0,1,0] 0
gamma[-1,0,1,0,1,1] 1
gamma[-1,0,1,0,2,0] 0
gamma[-1,0,1,0,2,1] 0
gamma[-1,0,1,0,3,0] 0
gamma[-1,0,1,0,3,1] 0
gamma[-1,0,1,0,4,0] 0
gamma[-1,0,1,0,4,1] 1
gamma[-1,0,1,1,0,0] 0
gamma[-1,0,1,1,0,1] 0
gamma[-1,0,1,1,1,0] 0
gamma[-1,0,1,1,1,1] 0
gamma[-1,0,1,1,2,0] 1
gamma[-1,0,1,1,2,1] 0
gamma[-1,0,1,1,3,0] 0
gamma[-1,0,1,1,3,1] 0
gamma[-1,0,1,1,4,0] 0
gamma[-1,0,1,1,4,1] 1
gamma[-1,0,2,0,0,0] 0
gamma[-1,0,2,0,0,1] 1
gamma[-1,0,2,0,1,0] 1
gamma[-1,0,2,0,1,1] 1
gamma[-1,0,2,0,2,0] 0
gamma[-1,0,2,0,2,1] 1
gamma[-1,0,2,0,3,0] 0
gamma[-1,0,2,0,3,1] 0
gamma[-1,0,2,0,4,0] 0
gamma[-1,0,2,0,4,1] 1
gamma[-1,0,2,1,0,0] 0
gamma[-1,0,2,1,0,1] 0
gamma[-1,0,2,1,1,0] 1
gamma[-1,0,2,1,1,1] 1
gamma[-1,0,2,1,2,0] 0
gamma[-1,0,2,1,2,1] 0
gamma[-1,0,2,1,3,0] 0
gamma[-1,0,2,1,3,1] 0
gamma[-1,0,2,1,4,0] 0
gamma[-1,0,2,1,4,1] 1
gamma[-1,0,3,0,0,0] 0
gamma[-1,0,3,0,0,1] 1
gamma[-1,0,3,0,1,0] 1
gamma[-1,0,3,0,1,1] 1
gamma[-1,0,3,0,2,0] 1
gamma[-1,0,3,0,2,1] 0
gamma[-1,0,3,0,3,0] 0
gamma[-1,0,3,0,3,1] 0
gamma[-1,0,3,0,4,0] 0
gamma[-1,0,3,0,4,1] 1
gamma[-1,0,3,1,0,0] 0
gamma[-1,0,3,1,0,1] 1
gamma[-1,0,3,1,1,0] 1
gamma[-1,0,3,1,1,1] 1
gamma[-1,0,3,1,2,0] 1
gamma[-1,0,3,1,2,1] 1
gamma[-1,0,3,1,3,0] 0
gamma[-1,0,3,1,3,1] 1
gamma[-1,0,3,1,4,0] 0
gamma[-1,0,3,1,4,1] 1
gamma[-1,0,4,0,0,0] 0
gamma[-1,0,4,0,0,1] 0
gamma[-1,0,4,0,1,0] 0
gamma[-1,0,4,0,1,1] 0
gamma[-1,0,4,0,2,0] 1
gamma[-1,0,4,0,2,1] 0
gamma[-1,0,4,0,3,0] 0
gamma[-1,0,4,0,3,1] 0
gamma[-1,0,4,0,4,0] 0
gamma[-1,0,4,0,4,1] 0
gamma[-1,0,4,1,0,0] 0
gamma[-1,0,4,1,0,1] 0
gamma[-1,0,4,1,1,0] 1
gamma[-1,0,4,1,1,1] 0
gamma[-1,0,4,1,2,0] 1
gamma[-1,0,4,1,2,1] 0
gamma[-1,0,4,1,3,0] 0
gamma[-1,0,4,1,3,1] 0
gamma[-1,0,4,1,4,0] 0
gamma[-1,0,4,1,4,1] 1
gamma[-2,0,1,0,0,0] 1
gamma[-2,0,1,0,0,1] 1
gamma[-2,0,1,0,1,0] 0
gamma[-2,0,1,0,1,1] 1
gamma[-2,0,1,0,2,0] 0
gamma[-2,0,1,0,2,1] 1
gamma[-2,0,1,0,3,0] 1
gamma[-2,0,1,0,3,1] 1
gamma[-2,0,1,0,4,0] 1
gamma[-2,0,1,0,4,1] 1
gamma[-2,0,1,1,0,0] 1
gamma[-2,0,1,1,0,1] 0
gamma[-2,0,1,1,1,0] 0
gamma[-2,0,1,1,1,1] 0
gamma[-2,0,1,1,2,0] 0
gamma[-2,0,1,1,2,1] 1
gamma[-2,0,1,1,3,0] 0
gamma[-2,0,1,1,3,1] 1
gamma[-2,0,1,1,4,0] 1
gamma[-2,0,1,1,4,1] 0
gamma[-2,0,2,0,0,0] 1
gamma[-2,0,2,0,0,1] 0
gamma[-2,0,2,0,1,0] 1
gamma[-2,0,2,0,1,1] 0
gamma[-2,0,2,0,2,0] 0
gamma[-2,0,2,0,2,1] 0
gamma[-2,0,2,0,3,0] 1
gamma[-2,0,2,0,3,1] 0
gamma[-2,0,2,0,4,0] 1
gamma[-2,0,2,0,4,1] 0
gamma[-2,0,2,1,0,0] 1
gamma[-2,0,2,1,0,1] 0
gamma[-2,0,2,1,1,0] 1
gamma[-2,0,2,1,1,1] 0
gamma[-2,0,2,1,2,0] 0
gamma[-2,0,2,1,2,1] 1
gamma[-2,0,2,1,3,0] 1
gamma[-2,0,2,1,3,1] 1
gamma[-2,0,2,1,4,0] 1
gamma[-2,0,2,1,4,1] 0
gamma[-3,0,0,0,0,0] 0
gamma[-3,0,0,0,0,1] 1
gamma[-3,0,0,0,1,0] 0
gamma[-3,0,0,0,1,1] 0
gamma[-3,0,0,0,2,0] 0
gamma[-3,0,0,0,2,1] 1
gamma[-3,0,0,0,3,0] 0
gamma[-3,0,0,0,3,1] 1
gamma[-3,0,0,0,4,0] 1
gamma[-3,0,0,0,4,1] 1
gamma[-3,0,0,1,0,0] 0
gamma[-3,0,0,1,0,1] 0
gamma[-3,0,0,1,1,0] 0
gamma[-3,0,0,1,1,1] 0
gamma[-3,0,0,1,2,0] 0
gamma[-3,0,0,1,2,1] 1
gamma[-3,0,0,1,3,0] 0
gamma[-3,0,0,1,3,1] 1
gamma[-3,0,0,1,4,0] 1
gamma[-3,0,0,1,4,1] 0
gamma[-3,0,1,0,0,0] 1
gamma[-3,0,1,0,0,1] 0
gamma[-3,0,1,0,1,0] 0
gamma[-3,0,1,0,1,1] 0
gamma[-3,0,1,0,2,0] 0
gamma[-3,0,1,0,2,1] 0
gamma[-3,0,1,0,3,0] 1
gamma[-3,0,1,0,3,1] 0
gamma[-3,0,1,0,4,0] 1
gamma[-3,0,1,0,4,1] 0
gamma[-3,0,1,1,0,0] 1
gamma[-3,0,1,1,0,1] 0
gamma[-3,0,1,1,1,0] 0
gamma[-3,0,1,1,1,1] 1
gamma[-3,0,1,1,2,0] 0
gamma[-3,0,1,1,2,1] 1
gamma[-3,0,1,1,3,0] 0
gamma[-3,0,1,1,3,1] 1
gamma[-3,0,1,1,4,0] 1
gamma[-3,0,1,1,4,1] 0
gamma[-3,0,3,0,0,0] 1
gamma[-3,0,3,0,0,1] 0
gamma[-3,0,3,0,1,0] 0
gamma[-3,0,3,0,1,1] 0
gamma[-3,0,3,0,2,0] 0
gamma[-3,0,3,0,2,1] 1
gamma[-3,0,3,0,3,0] 1
gamma[-3,0,3,0,3,1] 1
gamma[-3,0,3,0,4,0] 1
gamma[-3,0,3,0,4,1] 0
gamma[-3,0,3,1,0,0] 1
gamma[-3,0,3,1,0,1] 0
gamma[-3,0,3,1,1,0] 0
gamma[-3,0,3,1,1,1] 0
gamma[-3,0,3,1,2,0] 0
gamma[-3,0,3,1,2,1] 1
gamma[-3,0,3,1,3,0] 1
gamma[-3,0,3,1,3,1] 0
gamma[-3,0,3,1,4,0] 1
gamma[-3,0,3,1,4,1] 0
gamma[-3,0,4,0,0,0] 0
gamma[-3,0,4,0,0,1] 0
gamma[-3,0,4,0,1,0] 0
gamma[-3,0,4,0,1,1] 0
gamma[-3,0,4,0,2,0] 0
gamma[-3,0,4,0,2,1] 1
gamma[-3,0,4,0,3,0] 0
gamma[-3,0,4,0,3,1] 1
gamma[-3,0,4,0,4,0] 0
gamma[-3,0,4,0,4,1] 1
gamma[-3,0,4,1,0,0] 0
gamma[-3,0,4,1,0,1] 0
gamma[-3,0,4,1,1,0] 0
gamma[-3,0,4,1,1,1] 1
gamma[-3,0,4,1,2,0] 0
gamma[-3,0,4,1,2,1] 1
gamma[-3,0,4,1,3,0] 0
gamma[-3,0,4,1,3,1] 1
gamma[-3,0,4,1,4,0] 1
gamma[-3,0,4,1,4,1] 0
gamma[-4,0,0,0,0,0] 0
gamma[-4,0,0,0,0,1] 0
gamma[-4,0,0,0,1,0] 0
gamma[-4,0,0,0,1,1] 0
gamma[-4,0,0,0,2,0] 1
gamma[-4,0,0,0,2,1] 0
gamma[-4,0,0,0,3,0] 0
gamma[-4,0,0,0,3,1] 1
gamma[-4,0,0,0,4,0] 1
gamma[-4,0,0,0,4,1] 1
gamma[-4,0,0,1,0,0] 0
gamma[-4,0,0,1,0,1] 0
gamma[-4,0,0,1,1,0] 1
gamma[-4,0,0,1,1,1] 0
gamma[-4,0,0,1,2,0] 1
gamma[-4,0,0,1,2,1] 0
gamma[-4,0,0,1,3,0] 0
gamma[-4,0,0,1,3,1] 0
gamma[-4,0,0,1,4,0] 1
gamma[-4,0,0,1,4,1] 0
gamma[-4,0,1,0,0,0] 1
gamma[-4,0,1,0,0,1] 1
gamma[-4,0,1,0,1,0] 0
gamma[-4,0,1,0,1,1] 1
gamma[-4,0,1,0,2,0] 0
gamma[-4,0,1,0,2,1] 0
gamma[-4,0,1,0,3,0] 1
gamma[-4,0,1,0,3,1] 1
gamma[-4,0,1,0,4,0] 1
gamma[-4,0,1,0,4,1] 1
gamma[-4,0,1,1,0,0] 1
gamma[-4,0,1,1,0,1] 0
gamma[-4,0,1,1,1,0] 0
gamma[-4,0,1,1,1,1] 0
gamma[-4,0,1,1,2,0] 1
gamma[-4,0,1,1,2,1] 0
gamma[-4,0,1,1,3,0] 0
gamma[-4,0,1,1,3,1] 1
gamma[-4,0,1,1,4,0] 1
gamma[-4,0,1,1,4,1] 1
gamma[-4,0,2,0,0,0] 1
gamma[-4,0,2,0,0,1] 1
gamma[-4,0,2,0,1,0] 1
gamma[-4,0,2,0,1,1] 1
gamma[-4,0,2,0,2,0] 0
gamma[-4,0,2,0,2,1] 1
gamma[-4,0,2,0,3,0] 1
gamma[-4,0,2,0,3,1] 0
gamma[-4,0,2,0,4,0] 1
gamma[-4,0,2,0,4,1] 1
gamma[-4,0,2,1,0,0] 1
gamma[-4,0,2,1,0,1] 1
gamma[-4,0,2,1,1,0] 1
gamma[-4,0,2,1,1,1] 0
gamma[-4,0,2,1,2,0] 0
gamma[-4,0,2,1,2,1] 0
gamma[-4,0,2,1,3,0] 1
gamma[-4,0,2,1,3,1] 1
gamma[-4,0,2,1,4,0] 1
gamma[-4,0,2,1,4,1] 1
gamma[-4,0,3,0,0,0] 1
gamma[-4,0,3,0,0,1] 0
gamma[-4,0,3,0,1,0] 1
gamma[-4,0,3,0,1,1] 0
gamma[-4,0,3,0,2,0] 1
gamma[-4,0,3,0,2,1] 0
gamma[-4,0,3,0,3,0] 1
gamma[-4,0,3,0,3,1] 0
gamma[-4,0,3,0,4,0] 1
gamma[-4,0,3,0,4,1] 0
gamma[-4,0,3,1,0,0] 1
gamma[-4,0,3,1,0,1] 0
gamma[-4,0,3,1,1,0] 1
gamma[-4,0,3,1,1,1] 0
gamma[-4,0,3,1,2,0] 1
gamma[-4,0,3,1,2,1] 0
gamma[-4,0,3,1,3,0] 1
gamma[-4,0,3,1,3,1] 0
gamma[-4,0,3,1,4,0] 1
gamma[-4,0,3,1,4,1] 0
alpha00[-3,0] 0
alpha00[-3,3] 1
alpha00[-4,4] 0
alpha00[-4,1] 0
alpha00[-1,4] 0
alpha00[-2,4] 0
alpha00[-1,1] 0
alpha00[-2,1] 0
alpha00[-3,2] 0
alpha00[-4,0] 0
alpha00[-4,3] 0
alpha00[-1,0] 0
alpha00[-2,0] 0
alpha00[-1,3] 0
alpha00[-2,3] 0
alpha00[-1,2] 0
alpha00[-3,4] 0
alpha00[-3,1] 0
alpha00[-4,2] 0
alpha00[-2,2] 0
alpha10[2,0,2] 0
alpha10[4,0,4] 0
alpha10[0,1,0] 0
alpha10[2,1,0] 0
alpha10[4,0,1] 0
alpha10[0,1,3] 0
alpha10[2,1,3] 0
alpha10[3,1,2] 0
alpha10[0,0,1] 0
alpha10[4,1,2] 0
alpha10[0,0,4] 0
alpha10[1,0,1] 0
alpha10[1,1,0] 0
alpha10[3,0,3] 1
alpha10[1,0,4] 0
alpha10[1,1,3] 0
alpha10[3,0,0] 0
alpha10[4,0,0] 0
alpha10[2,0,1] 0
alpha10[2,1,2] 0
alpha10[2,0,4] 0
alpha10[4,0,3] 0
alpha10[0,1,2] 0
alpha10[3,1,1] 0
alpha10[3,1,4] 0
alpha10[3,0,1] 0
alpha10[0,0,3] 0
alpha10[4,1,4] 1
alpha10[0,0,0] 0
alpha10[4,1,1] 0
alpha10[1,1,2] 0
alpha10[1,0,0] 0
alpha10[3,0,2] 0
alpha10[1,0,3] 0
alpha10[2,0,0] 0
alpha10[4,0,2] 0
alpha10[2,0,3] 0
alpha10[2,1,4] 0
alpha10[0,1,1] 0
alpha10[2,1,1] 0
alpha10[0,1,4] 0
alpha10[3,1,3] 1
alpha10[3,1,0] 0
alpha10[4,1,0] 0
alpha10[0,0,2] 0
alpha10[4,1,3] 0
alpha10[1,1,4] 0
alpha10[1,0,2] 0
alpha10[1,1,1] 0
alpha10[3,0,4] 0
alpha_1[-3,1,1,0,0] 0
alpha_1[-1,4,0,0,0] 0
alpha_1[-4,3,1,2,1] 0
alpha_1[-3,3,0,0,1] 0
alpha_1[-1,2,0,3,0] 1
alpha_1[-2,2,0,3,0] 0
alpha_1[-1,0,0,0,1] 0
alpha_1[-4,2,1,2,0] 0
alpha_1[-4,3,0,4,1] 0
alpha_1[-4,0,0,4,1] 1
alpha_1[-1,3,1,0,0] 1
alpha_1[-1,0,0,4,1] 1
alpha_1[-1,2,1,3,0] 0
alpha_1[-2,2,1,3,0] 1
alpha_1[-1,4,0,2,0] 0
alpha_1[-3,0,1,2,0] 1
alpha_1[-4,0,1,0,0] 0
alpha_1[-1,1,0,3,0] 0
alpha_1[-2,1,0,3,0] 1
alpha_1[-1,2,0,2,1] 1
alpha_1[-2,2,0,2,1] 0
alpha_1[-4,1,1,2,0] 0
alpha_1[-3,0,1,0,0] 0
alpha_1[-4,2,1,4,0] 1
alpha_1[-4,3,1,4,1] 0
alpha_1[-1,3,0,1,0] 1
alpha_1[-1,3,1,2,0] 1
alpha_1[-1,0,1,2,0] 0
alpha_1[-3,0,1,4,0] 0
alpha_1[-3,4,1,1,0] 1
alpha_1[-3,3,0,2,0] 1
alpha_1[-4,1,1,3,1] 1
alpha_1[-1,1,1,0,1] 0
alpha_1[-1,2,0,4,1] 1
alpha_1[-1,0,0,2,0] 0
alpha_1[-1,2,1,0,0] 1
alpha_1[-2,1,1,0,1] 1
alpha_1[-1,4,1,1,0] 0
alpha_1[-2,2,0,4,1] 0
alpha_1[-2,2,1,0,0] 0
alpha_1[-1,3,0,3,0] 0
alpha_1[-4,1,1,4,0] 1
alpha_1[-4,0,1,1,0] 0
alpha_1[-1,3,1,1,1] 1
alpha_1[-1,0,1,1,1] 1
alpha_1[-1,0,1,4,0] 1
alpha_1[-1,4,0,3,0] 0
alpha_1[-3,1,1,1,0] 1
alpha_1[-3,3,1,1,0] 1
alpha_1[-3,4,1,0,1] 1
alpha_1[-1,1,0,4,1] 1
alpha_1[-2,1,0,4,1] 1
alpha_1[-1,4,1,3,0] 0
alpha_1[-3,1,1,2,1] 1
alpha_1[-3,3,1,0,1] 0
alpha_1[-1,0,1,3,1] 0
alpha_1[-1,4,1,0,1] 0
alpha_1[-3,3,1,3,0] 0
alpha_1[-4,2,0,1,1] 1
alpha_1[-1,1,1,2,0] 0
alpha_1[-2,1,1,2,0] 1
alpha_1[-4,1,0,3,0] 1
alpha_1[-1,3,1,3,0] 1
alpha_1[-3,1,1,4,1] 0
alpha_1[-1,4,0,4,1] 0
alpha_1[-3,3,1,2,1] 1
alpha_1[-3,4,1,2,0] 1
alpha_1[-4,3,0,0,1] 1
alpha_1[-3,1,0,0,0] 1
alpha_1[-4,3,0,1,0] 0
alpha_1[-4,0,0,1,0] 0
alpha_1[-1,1,1,4,0] 1
alpha_1[-2,1,1,4,0] 0
alpha_1[-1,4,1,4,1] 1
alpha_1[-3,1,0,1,1] 0
alpha_1[-3,1,0,4,0] 1
alpha_1[-4,3,1,0,1] 0
alpha_1[-3,0,0,1,0] 0
alpha_1[-4,2,1,0,0] 1
alpha_1[-3,4,1,4,0] 0
alpha_1[-4,2,0,3,0] 1
alpha_1[-4,0,0,2,1] 0
alpha_1[-4,0,0,0,1] 1
alpha_1[-4,0,0,3,0] 1
alpha_1[-4,2,1,1,1] 1
alpha_1[-3,1,0,3,1] 0
alpha_1[-1,1,0,1,0] 1
alpha_1[-2,1,0,1,0] 1
alpha_1[-1,2,0,0,1] 1
alpha_1[-2,2,0,0,1] 0
alpha_1[-3,0,0,0,1] 1
alpha_1[-3,0,0,3,0] 1
alpha_1[-3,3,1,4,0] 0
alpha_1[-4,1,1,0,0] 0
alpha_1[-3,0,0,4,1] 1
alpha_1[-3,4,0,1,1] 1
alpha_1[-3,4,0,2,0] 1
alpha_1[-4,2,1,3,1] 1
alpha_1[-4,3,1,2,0] 1
alpha_1[-1,1,0,0,1] 0
alpha_1[-2,1,0,0,1] 1
alpha_1[-4,1,0,4,0] 1
alpha_1[-1,0,0,0,0] 0
alpha_1[-4,2,0,4,1] 1
alpha_1[-4,1,0,1,1] 1
alpha_1[-3,4,0,3,1] 1
alpha_1[-1,0,0,4,0] 1
alpha_1[-3,0,1,1,1] 0
alpha_1[-3,4,0,4,0] 1
alpha_1[-1,0,1,0,0] 1
alpha_1[-1,3,0,2,1] 1
alpha_1[-4,3,1,1,1] 0
alpha_1[-4,3,1,3,1] 1
alpha_1[-1,1,0,2,1] 0
alpha_1[-1,2,0,2,0] 1
alpha_1[-2,1,0,2,1] 1
alpha_1[-2,2,0,2,0] 0
alpha_1[-3,1,1,3,0] 1
alpha_1[-4,3,1,4,0] 0
alpha_1[-4,3,0,3,1] 1
alpha_1[-3,3,0,3,1] 1
alpha_1[-3,3,0,4,0] 0
alpha_1[-1,2,1,1,1] 1
alpha_1[-1,0,0,3,1] 0
alpha_1[-1,2,1,2,0] 0
alpha_1[-1,4,0,0,1] 0
alpha_1[-1,4,0,1,0] 0
alpha_1[-2,2,1,1,1] 0
alpha_1[-2,2,1,2,0] 1
alpha_1[-1,3,0,4,1] 1
alpha_1[-3,1,1,0,1] 1
alpha_1[-1,1,1,0,0] 1
alpha_1[-1,2,0,4,0] 1
alpha_1[-2,1,1,0,0] 0
alpha_1[-2,2,0,4,0] 0
alpha_1[-4,0,1,2,1] 0
alpha_1[-4,0,1,3,0] 0
alpha_1[-1,1,1,1,1] 0
alpha_1[-2,1,1,1,1] 0
alpha_1[-3,0,1,2,1] 1
alpha_1[-1,2,1,3,1] 0
alpha_1[-1,0,1,1,0] 1
alpha_1[-1,3,1,1,0] 1
alpha_1[-1,4,0,2,1] 0
alpha_1[-2,2,1,3,1] 1
alpha_1[-3,0,1,3,0] 1
alpha_1[-1,1,0,3,1] 0
alpha_1[-2,1,0,3,1] 1
alpha_1[-1,1,0,4,0] 1
alpha_1[-2,1,0,4,0] 1
alpha_1[-3,4,1,0,0] 0
alpha_1[-4,0,1,4,1] 0
alpha_1[-4,1,1,2,1] 0
alpha_1[-1,1,1,3,1] 0
alpha_1[-2,1,1,3,1] 1
alpha_1[-3,0,1,4,1] 0
alpha_1[-3,3,1,0,0] 0
alpha_1[-1,0,1,3,0] 1
alpha_1[-4,2,0,1,0] 1
alpha_1[-1,3,1,4,1] 1
alpha_1[-1,4,1,1,1] 0
alpha_1[-3,4,1,3,1] 1
alpha_1[-1,4,1,2,0] 0
alpha_1[-4,1,0,0,0] 1
alpha_1[-3,1,1,1,1] 1
alpha_1[-3,3,1,2,0] 1
alpha_1[-4,2,0,0,1] 1
alpha_1[-3,0,0,2,1] 1
alpha_1[-3,4,0,0,0] 0
alpha_1[-1,4,1,3,1] 0
alpha_1[-1,4,1,4,0] 1
alpha_1[-3,1,0,1,0] 0
alpha_1[-4,3,0,2,0] 0
alpha_1[-4,3,1,0,0] 0
alpha_1[-4,1,0,2,0] 0
alpha_1[-1,2,1,4,1] 1
alpha_1[-2,2,1,4,1] 0
alpha_1[-4,2,0,2,1] 1
alpha_1[-4,0,0,0,0] 0
alpha_1[-3,3,0,0,0] 0
alpha_1[-4,1,1,1,1] 0
alpha_1[-4,2,1,1,0] 0
alpha_1[-3,1,0,3,0] 0
alpha_1[-1,3,0,0,1] 1
alpha_1[-4,0,0,4,0] 1
alpha_1[-3,0,0,0,0] 1
alpha_1[-4,0,1,0,1] 0
alpha_1[-1,2,0,0,0] 1
alpha_1[-2,2,0,0,0] 0
alpha_1[-4,1,0,3,1] 1
alpha_1[-4,3,0,4,0] 0
alpha_1[-4,3,0,1,1] 0
alpha_1[-4,0,0,1,1] 1
alpha_1[-3,0,0,4,0] 1
alpha_1[-1,2,0,1,1] 1
alpha_1[-2,2,0,1,1] 0
alpha_1[-3,3,0,1,1] 0
alpha_1[-1,0,0,1,1] 0
alpha_1[-4,2,1,3,0] 1
alpha_1[-3,1,0,2,1] 0
alpha_1[-1,1,0,0,0] 1
alpha_1[-2,1,0,0,0] 1
alpha_1[-4,2,0,3,1] 0
alpha_1[-4,2,0,4,0] 1
alpha_1[-4,1,1,3,0] 1
alpha_1[-1,2,0,3,1] 0
alpha_1[-2,2,0,3,1] 0
alpha_1[-4,2,1,2,1] 0
alpha_1[-3,0,1,1,0] 1
alpha_1[-1,3,0,2,0] 0
alpha_1[-4,3,1,1,0] 0
alpha_1[-1,1,0,2,0] 0
alpha_1[-2,1,0,2,0] 1
alpha_1[-1,3,1,0,1] 1
alpha_1[-3,3,0,3,0] 1
alpha_1[-3,4,0,2,1] 1
alpha_1[-1,2,1,1,0] 1
alpha_1[-1,0,0,3,0] 0
alpha_1[-2,2,1,1,0] 0
alpha_1[-3,0,1,0,1] 0
alpha_1[-4,2,1,4,1] 1
alpha_1[-1,3,0,1,1] 1
alpha_1[-1,3,0,4,0] 1
alpha_1[-3,3,1,4,1] 0
alpha_1[-4,1,0,4,1] 1
alpha_1[-4,0,1,2,0] 0
alpha_1[-1,3,1,2,1] 1
alpha_1[-1,0,1,2,1] 1
alpha_1[-3,1,1,2,0] 1
alpha_1[-3,4,1,1,1] 1
alpha_1[-1,4,1,0,0] 0
alpha_1[-3,3,0,2,1] 1
alpha_1[-1,1,1,1,0] 0
alpha_1[-2,1,1,1,0] 0
alpha_1[-1,2,1,0,1] 0
alpha_1[-1,0,0,2,1] 0
alpha_1[-2,2,1,0,1] 1
alpha_1[-1,0,1,0,1] 1
alpha_1[-3,4,0,4,1] 1
alpha_1[-4,1,1,4,1] 1
alpha_1[-1,3,0,3,1] 0
alpha_1[-4,0,1,1,1] 0
alpha_1[-4,0,1,4,0] 0
alpha_1[-3,1,1,3,1] 1
alpha_1[-1,4,0,3,1] 0
alpha_1[-1,0,1,4,1] 1
alpha_1[-1,4,0,4,0] 0
alpha_1[-3,1,1,4,0] 0
alpha_1[-3,3,1,1,1] 0
alpha_1[-4,3,0,0,0] 0
alpha_1[-4,3,0,3,0] 0
alpha_1[-3,3,0,4,1] 0
alpha_1[-1,1,1,3,0] 0
alpha_1[-2,1,1,3,0] 1
alpha_1[-1,2,1,2,1] 1
alpha_1[-2,2,1,2,1] 1
alpha_1[-1,4,0,1,1] 0
alpha_1[-4,0,1,3,1] 1
alpha_1[-1,3,1,4,0] 1
alpha_1[-3,3,1,3,1] 0
alpha_1[-3,4,1,3,0] 1
alpha_1[-4,0,0,2,0] 0
alpha_1[-1,1,1,2,1] 0
alpha_1[-2,1,1,2,1] 1
alpha_1[-3,0,1,3,1] 1
alpha_1[-4,2,0,0,0] 1
alpha_1[-3,0,0,2,0] 1
alpha_1[-1,3,1,3,1] 1
alpha_1[-3,4,1,2,1] 1
alpha_1[-3,1,0,0,1] 0
alpha_1[-1,1,1,4,1] 1
alpha_1[-1,2,1,4,0] 1
alpha_1[-2,1,1,4,1] 1
alpha_1[-2,2,1,4,0] 0
alpha_1[-3,4,0,1,0] 0
alpha_1[-3,1,0,4,1] 0
alpha_1[-4,2,0,2,0] 1
alpha_1[-3,0,0,1,1] 1
alpha_1[-4,1,1,1,0] 0
alpha_1[-4,2,1,0,1] 1
alpha_1[-1,4,1,2,1] 0
alpha_1[-3,4,1,4,1] 0
alpha_1[-1,3,0,0,0] 1
alpha_1[-4,1,0,0,1] 1
alpha_1[-4,0,0,3,1] 1
alpha_1[-4,1,0,1,0] 1
alpha_1[-4,3,0,2,1] 0
alpha_1[-3,4,0,3,0] 1
alpha_1[-4,3,1,3,0] 0
alpha_1[-1,1,0,1,1] 1
alpha_1[-1,2,0,1,0] 1
alpha_1[-2,1,0,1,1] 1
alpha_1[-2,2,0,1,0] 0
alpha_1[-1,0,0,1,0] 0
alpha_1[-3,0,0,3,1] 1
alpha_1[-3,3,0,1,0] 1
alpha_1[-3,4,0,0,1] 1
alpha_1[-3,1,0,2,0] 0
alpha_1[-4,1,1,0,1] 1
alpha_1[-4,1,0,2,1] 1
beta0[-4,3,0,3] 1
beta0[-1,1,0,3] 0
beta0[-2,1,0,3] 1
beta0[-4,3,1,2] 1
beta0[-3,1,0,2] 1
beta0[-1,2,0,1] 1
beta0[-2,2,0,1] 1
beta0[-3,3,0,4] 1
beta0[-1,4,0,3] 1
beta0[-4,2,0,1] 1
beta0[-3,4,0,2] 0
beta0[-3,1,1,3] 0
beta0[-4,1,0,2] 0
beta0[-4,1,1,1] 0
beta0[-1,3,1,4] 0
beta0[-4,3,1,4] 1
beta0[-1,2,0,3] 0
beta0[-2,2,0,3] 1
beta0[-4,2,0,3] 1
beta0[-3,4,0,4] 0
beta0[-3,0,1,0] 0
beta0[-4,0,1,1] 1
beta0[-4,1,0,4] 1
beta0[-4,1,1,3] 0
beta0[-4,2,1,1] 1
beta0[-3,3,1,1] 0
beta0[-4,0,0,2] 1
beta0[-3,0,0,1] 1
beta0[-1,3,0,1] 1
beta0[-4,0,1,3] 0
beta0[-1,0,1,0] 1
beta0[-1,0,0,4] 0
beta0[-4,2,1,3] 1
beta0[-3,3,1,3] 1
beta0[-4,0,0,4] 1
beta0[-3,0,0,3] 0
beta0[-2,1,0,0] 1
beta0[-1,1,0,0] 0
beta0[-3,4,1,1] 0
beta0[-1,4,0,0] 1
beta0[-3,1,1,0] 1
beta0[-1,3,0,3] 0
beta0[-1,3,1,1] 1
beta0[-1,1,0,2] 0
beta0[-2,1,0,2] 1
beta0[-1,1,1,1] 0
beta0[-2,1,1,1] 0
beta0[-3,4,1,3] 0
beta0[-4,3,1,1] 1
beta0[-1,2,0,0] 0
beta0[-2,2,0,0] 1
beta0[-1,4,0,2] 1
beta0[-4,2,0,0] 1
beta0[-1,4,1,1] 1
beta0[-3,1,1,2] 0
beta0[-3,1,0,4] 1
beta0[-4,1,0,1] 0
beta0[-4,1,1,0] 1
beta0[-1,3,1,3] 0
beta0[-2,1,0,4] 1
beta0[-1,1,0,4] 0
beta0[-1,1,1,3] 1
beta0[-2,1,1,3] 0
beta0[-1,2,0,2] 0
beta0[-2,2,0,2] 1
beta0[-1,2,1,1] 1
beta0[-1,4,0,4] 1
beta0[-2,2,1,1] 1
beta0[-1,4,1,3] 1
beta0[-4,2,0,2] 0
beta0[-4,0,1,0] 0
beta0[-3,1,1,4] 1
beta0[-3,0,1,2] 0
beta0[-4,1,1,2] 1
beta0[-1,0,0,1] 0
beta0[-4,2,1,0] 1
beta0[-3,3,1,0] 1
beta0[-4,0,0,1] 0
beta0[-3,0,0,0] 0
beta0[-4,3,0,0] 1
beta0[-1,2,0,4] 0
beta0[-2,2,0,4] 1
beta0[-1,2,1,3] 0
beta0[-2,2,1,3] 1
beta0[-4,2,0,4] 1
beta0[-3,3,0,1] 0
beta0[-3,0,1,4] 1
beta0[-4,1,1,4] 1
beta0[-1,0,0,3] 1
beta0[-4,2,1,2] 0
beta0[-1,0,1,2] 1
beta0[-3,3,1,2] 0
beta0[-4,0,0,3] 0
beta0[-3,4,1,0] 0
beta0[-4,3,0,2] 1
beta0[-3,1,0,1] 1
beta0[-3,3,0,3] 1
beta0[-3,4,0,1] 1
beta0[-4,2,1,4] 1
beta0[-1,0,1,4] 0
beta0[-3,3,1,4] 1
beta0[-1,1,1,0] 0
beta0[-2,1,1,0] 1
beta0[-3,4,1,2] 0
beta0[-1,4,0,1] 0
beta0[-4,3,0,4] 1
beta0[-1,4,1,0] 1
beta0[-4,3,1,3] 1
beta0[-3,1,1,1] 1
beta0[-3,1,0,3] 1
beta0[-3,4,0,3] 0
beta0[-4,1,0,3] 1
beta0[-2,1,1,2] 0
beta0[-1,1,1,2] 1
beta0[-3,4,1,4] 1
beta0[-1,2,1,0] 0
beta0[-2,2,1,0] 1
beta0[-1,4,1,2] 1
beta0[-1,3,0,0] 0
beta0[-4,0,1,2] 1
beta0[-3,0,1,1] 0
beta0[-1,0,0,0] 1
beta0[-4,0,0,0] 0
beta0[-1,1,1,4] 0
beta0[-2,1,1,4] 1
beta0[-3,0,0,2] 0
beta0[-1,2,1,2] 0
beta0[-2,2,1,2] 1
beta0[-1,4,1,4] 0
beta0[-3,3,0,0] 1
beta0[-1,3,0,2] 1
beta0[-4,0,1,4] 1
beta0[-3,0,1,3] 0
beta0[-1,0,0,2] 1
beta0[-1,0,1,1] 1
beta0[-1,3,1,0] 0
beta0[-3,0,0,4] 1
beta0[-4,3,0,1] 1
beta0[-1,1,0,1] 0
beta0[-2,1,0,1] 0
beta0[-1,2,1,4] 0
beta0[-2,2,1,4] 1
beta0[-3,1,0,0] 1
beta0[-4,3,1,0] 1
beta0[-3,3,0,2] 0
beta0[-3,4,0,0] 0
beta0[-1,3,0,4] 0
beta0[-4,1,0,0] 1
beta0[-1,0,1,3] 1
beta0[-1,3,1,2] 1
beta1[-4,3,0,3] 0
beta1[-1,1,0,3] 1
beta1[-2,1,0,3] 1
beta1[-4,3,1,2] 0
beta1[-3,1,0,2] 1
beta1[-1,2,0,1] 1
beta1[-2,2,0,1] 1
beta1[-3,3,0,4] 1
beta1[-1,4,0,3] 1
beta1[-4,2,0,1] 1
beta1[-3,4,0,2] 1
beta1[-3,1,1,3] 1
beta1[-4,1,0,2] 0
beta1[-4,1,1,1] 1
beta1[-1,3,1,4] 1
beta1[-4,3,1,4] 1
beta1[-1,2,0,3] 0
beta1[-2,2,0,3] 1
beta1[-4,2,0,3] 0
beta1[-3,4,0,4] 1
beta1[-3,0,1,0] 1
beta1[-4,0,1,1] 1
beta1[-4,1,0,4] 1
beta1[-4,1,1,3] 1
beta1[-4,2,1,1] 0
beta1[-3,3,1,1] 0
beta1[-4,0,0,2] 1
beta1[-3,0,0,1] 0
beta1[-1,3,0,1] 1
beta1[-4,0,1,3] 0
beta1[-1,0,1,0] 1
beta1[-1,0,0,4] 1
beta1[-4,2,1,3] 1
beta1[-3,3,1,3] 1
beta1[-4,0,0,4] 1
beta1[-3,0,0,3] 1
beta1[-2,1,0,0] 1
beta1[-1,1,0,0] 0
beta1[-3,4,1,1] 1
beta1[-1,4,0,0] 1
beta1[-3,1,1,0] 0
beta1[-1,3,0,3] 1
beta1[-1,3,1,1] 1
beta1[-1,1,0,2] 1
beta1[-2,1,0,2] 1
beta1[-1,1,1,1] 1
beta1[-2,1,1,1] 1
beta1[-3,4,1,3] 1
beta1[-4,3,1,1] 1
beta1[-1,2,0,0] 1
beta1[-2,2,0,0] 1
beta1[-1,4,0,2] 1
beta1[-4,2,0,0] 1
beta1[-1,4,1,1] 1
beta1[-3,1,1,2] 1
beta1[-3,1,0,4] 0
beta1[-4,1,0,1] 1
beta1[-4,1,1,0] 0
beta1[-1,3,1,3] 1
beta1[-2,1,0,4] 1
beta1[-1,1,0,4] 1
beta1[-1,1,1,3] 1
beta1[-2,1,1,3] 1
beta1[-1,2,0,2] 1
beta1[-2,2,0,2] 1
beta1[-1,2,1,1] 1
beta1[-1,4,0,4] 1
beta1[-2,2,1,1] 1
beta1[-1,4,1,3] 1
beta1[-4,2,0,2] 1
beta1[-4,0,1,0] 1
beta1[-3,1,1,4] 1
beta1[-3,0,1,2] 1
beta1[-4,1,1,2] 1
beta1[-1,0,0,1] 1
beta1[-4,2,1,0] 1
beta1[-3,3,1,0] 1
beta1[-4,0,0,1] 0
beta1[-3,0,0,0] 1
beta1[-4,3,0,0] 0
beta1[-1,2,0,4] 1
beta1[-2,2,0,4] 1
beta1[-1,2,1,3] 1
beta1[-2,2,1,3] 1
beta1[-4,2,0,4] 1
beta1[-3,3,0,1] 0
beta1[-3,0,1,4] 1
beta1[-4,1,1,4] 1
beta1[-1,0,0,3] 1
beta1[-4,2,1,2] 1
beta1[-1,0,1,2] 0
beta1[-3,3,1,2] 1
beta1[-4,0,0,3] 1
beta1[-3,4,1,0] 0
beta1[-4,3,0,2] 1
beta1[-3,1,0,1] 1
beta1[-3,3,0,3] 1
beta1[-3,4,0,1] 0
beta1[-4,2,1,4] 1
beta1[-1,0,1,4] 1
beta1[-3,3,1,4] 1
beta1[-1,1,1,0] 0
beta1[-2,1,1,0] 0
beta1[-3,4,1,2] 1
beta1[-1,4,0,1] 1
beta1[-4,3,0,4] 1
beta1[-1,4,1,0] 1
beta1[-4,3,1,3] 0
beta1[-3,1,1,1] 1
beta1[-3,1,0,3] 1
beta1[-3,4,0,3] 1
beta1[-4,1,0,3] 1
beta1[-2,1,1,2] 1
beta1[-1,1,1,2] 1
beta1[-3,4,1,4] 1
beta1[-1,2,1,0] 0
beta1[-2,2,1,0] 0
beta1[-1,4,1,2] 1
beta1[-1,3,0,0] 1
beta1[-4,0,1,2] 1
beta1[-3,0,1,1] 0
beta1[-1,0,0,0] 1
beta1[-4,0,0,0] 0
beta1[-1,1,1,4] 1
beta1[-2,1,1,4] 0
beta1[-3,0,0,2] 1
beta1[-1,2,1,2] 0
beta1[-2,2,1,2] 1
beta1[-1,4,1,4] 1
beta1[-3,3,0,0] 1
beta1[-1,3,0,2] 0
beta1[-4,0,1,4] 1
beta1[-3,0,1,3] 1
beta1[-1,0,0,2] 1
beta1[-1,0,1,1] 1
beta1[-1,3,1,0] 1
beta1[-3,0,0,4] 1
beta1[-4,3,0,1] 1
beta1[-1,1,0,1] 1
beta1[-2,1,0,1] 1
beta1[-1,2,1,4] 1
beta1[-2,2,1,4] 1
beta1[-3,1,0,0] 0
beta1[-4,3,1,0] 1
beta1[-3,3,0,2] 1
beta1[-3,4,0,0] 0
beta1[-1,3,0,4] 1
beta1[-4,1,0,0] 1
beta1[-1,0,1,3] 0
beta1[-1,3,1,2] 1
P[-1,0,0] 2.7071067811865476e+01
P[-1,0,1] 1.7071067811865476e+01
P[-2,0,0] 8.6203279841177192e+01
P[-2,0,1] 8.6746552739388918e+01
P[-3,0,0] 4.2192735361958015e+01
P[-3,0,1] 7.9590326704780779e+01
P[-4,0,0] 8.1550880121385219e+01
P[-4,0,1] 5.0445266550600032e+01
d_inside[-1,0] 10
d_inside[-2,0] 5
d_inside[-3,0] 9
d_inside[-4,0] 11
dif_inside[-1,0,0] 7.0710678118654737e+00
dif_inside[-1,0,1] 7.0710678118654755e+00
dif_inside[-2,0,0] 3.7967201588228057e+00
dif_inside[-2,0,1] 3.2534472606110763e+00
dif_inside[-3,0,0] 7.1927353619580439e+00
dif_inside[-3,0,1] 5.4096732952192781e+00
dif_inside[-4,0,0] 3.4491198786147774e+00
dif_inside[-4,0,1] 1.0445266550600033e+01
landa[-1,0] 0
landa[-2,0] 0
landa[-3,0] 0
landa[-4,0] 0
g[-1,0,0,0] 0
g[0,0,-1,0] 0
g[-1,0,0,1] 0
g[0,1,-1,0] 3
g[-1,0,1,0] 0
g[1,0,-1,0] 0
g[-1,0,1,1] 0
g[1,1,-1,0] 0
g[-1,0,2,0] 0
g[2,0,-1,0] 0
g[-1,0,2,1] 0
g[2,1,-1,0] 0
g[-1,0,3,0] 0
g[3,0,-1,0] 0
g[-1,0,3,1] 0
g[3,1,-1,0] 0
g[-1,0,4,0] 0
g[4,0,-1,0] 0
g[-1,0,4,1] 0
g[4,1,-1,0] 0
g[-2,0,1,0] 0
g[1,0,-2,0] 1
g[-2,0,1,1] 0
g[1,1,-2,0] 0
g[-2,0,2,0] 2
g[2,0,-2,0] 0
g[-2,0,2,1] 0
g[2,1,-2,0] 0
g[-3,0,0,0] 0
g[0,0,-3,0] 0
g[-3,0,0,1] 0
g[0,1,-3,0] 0
g[-3,0,1,0] 1
g[1,0,-3,0] 0
g[-3,0,1,1] 0
g[1,1,-3,0] 0
g[-3,0,3,0] 0
g[3,0,-3,0] 0
g[-3,0,3,1] 0
g[3,1,-3,0] 0
g[-3,0,4,0] 0
g[4,0,-3,0] 0
g[-3,0,4,1] 0
g[4,1,-3,0] 0
g[-4,0,0,0] 0
g[0,0,-4,0] 0
g[-4,0,0,1] 0
g[0,1,-4,0] 0
g[-4,0,1,0] 0
g[1,0,-4,0] 0
g[-4,0,1,1] 0
g[1,1,-4,0] 0
g[-4,0,2,0] 0
g[2,0,-4,0] 2
g[-4,0,2,1] 0
g[2,1,-4,0] 0
g[-4,0,3,0] 3
g[3,0,-4,0] 0
g[-4,0,3,1] 0
g[3,1,-4,0] 0
g[0,0,1,0] 0
g[0,0,1,1] 0
g[0,0,3,0] 0
g[0,0,3,1] 0
g[0,0,4,0] 0
g[0,0,4,1] 0
g[0,1,1,0] 0
g[0,1,1,1] 0
g[0,1,2,1] 0
g[0,1,3,0] 0
g[0,1,3,1] 0
g[0,1,4,0] 0
g[0,1,4,1] 0
g[1,0,0,0] 0
g[1,0,0,1] 0
g[1,0,2,0] 0
g[1,0,2,1] 0
g[1,1,0,0] 0
g[1,1,0,1] 0
g[1,1,2,0] 0
g[1,1,2,1] 0
g[1,1,3,0] 0
g[1,1,3,1] 0
g[2,0,1,0] 0
g[2,0,1,1] 0
g[2,0,3,0] 0
g[2,0,3,1] 0
g[2,1,0,1] 0
g[2,1,1,0] 0
g[2,1,1,1] 0
g[2,1,3,0] 0
g[2,1,3,1] 0
g[3,0,0,0] 0
g[3,0,0,1] 3
g[3,0,1,1] 0
g[3,0,2,0] 0
g[3,0,2,1] 0
g[3,1,0,0] 0
g[3,1,0,1] 0
g[3,1,1,1] 0
g[3,1,2,0] 0
g[3,1,2,1] 0
g[4,0,0,0] 0
g[4,0,0,1] 0
g[4,1,0,0] 0
g[4,1,0,1] 0
